    13     3   230   250    10    10
    14     4   114   134    20    10
     0    -3   208   228    10    10
    -2    14   121   141    10    10
     5   -24   241   261    10    10
   -23    10   142   162    10    10
    -4    13   176   196    20    10
    -5    -6   183   203    20    10
   -21    20   106   126    10    10
     2    -4   174   194    20    10
    23    -4    51    71    20    10
    -6   -21   244   264    20    10
    15    21   244   264    10    10
     1   -26   181   201    20    10
    -2    -3   111   131    10    10
     6    21
   -24     2
    -9   -22
    16   -13
    26    30